NAME /Users/henri/Research/solvers/instances/idol-instances/robust/collection/spp_dkp_Lefebvre_et_al_2026/shortest_path_9_9/uncertainty_sets/discrete_knapsack
ROWS
 N  OBJ
 L  primal_lower
COLUMNS
    MARKER    'MARKER'                 'INTORG'
    y[0,1]     OBJ        0
    y[0,1]     primal_lower -2.88
    y[0,2]     OBJ        0
    y[0,2]     primal_lower -0.19
    y[0,3]     OBJ        0
    y[0,3]     primal_lower -1.46
    y[0,4]     OBJ        0
    y[0,4]     primal_lower -2.74
    y[0,5]     OBJ        0
    y[0,5]     primal_lower -1.21
    y[0,6]     OBJ        0
    y[0,6]     primal_lower -4.04
    y[0,7]     OBJ        0
    y[0,7]     primal_lower -0.67
    y[0,8]     OBJ        0
    y[0,8]     primal_lower -1.65
    y[1,0]     OBJ        0
    y[1,0]     primal_lower -2.51
    y[1,2]     OBJ        0
    y[1,2]     primal_lower -2.08
    y[1,3]     OBJ        0
    y[1,3]     primal_lower -0.74
    y[1,4]     OBJ        0
    y[1,4]     primal_lower -0.93
    y[1,6]     OBJ        0
    y[1,6]     primal_lower -2.75
    y[2,0]     OBJ        0
    y[2,0]     primal_lower -1.06
    y[2,1]     OBJ        0
    y[2,1]     primal_lower -1.75
    y[2,3]     OBJ        0
    y[2,3]     primal_lower -0.2
    y[2,4]     OBJ        0
    y[2,4]     primal_lower -1.38
    y[2,8]     OBJ        0
    y[2,8]     primal_lower -1.24
    y[3,0]     OBJ        0
    y[3,0]     primal_lower -1.9
    y[3,1]     OBJ        0
    y[3,1]     primal_lower -0.26
    y[3,2]     OBJ        0
    y[3,2]     primal_lower -3.21
    y[3,4]     OBJ        0
    y[3,4]     primal_lower -3.1
    y[3,6]     OBJ        0
    y[3,6]     primal_lower -2.41
    y[3,7]     OBJ        0
    y[3,7]     primal_lower -3.04
    y[3,8]     OBJ        0
    y[3,8]     primal_lower -2.48
    y[4,0]     OBJ        0
    y[4,0]     primal_lower -2.72
    y[4,1]     OBJ        0
    y[4,1]     primal_lower -3.39
    y[4,2]     OBJ        0
    y[4,2]     primal_lower -3.7
    y[4,3]     OBJ        0
    y[4,3]     primal_lower -1.49
    y[4,5]     OBJ        0
    y[4,5]     primal_lower -1.31
    y[4,6]     OBJ        0
    y[4,6]     primal_lower -2.57
    y[4,7]     OBJ        0
    y[4,7]     primal_lower -1.58
    y[4,8]     OBJ        0
    y[4,8]     primal_lower -3.68
    y[5,0]     OBJ        0
    y[5,0]     primal_lower -3.03
    y[5,4]     OBJ        0
    y[5,4]     primal_lower -1.8
    y[5,6]     OBJ        0
    y[5,6]     primal_lower -3.74
    y[5,7]     OBJ        0
    y[5,7]     primal_lower -0.08
    y[5,8]     OBJ        0
    y[5,8]     primal_lower -1.95
    y[6,0]     OBJ        0
    y[6,0]     primal_lower -0.72
    y[6,1]     OBJ        0
    y[6,1]     primal_lower -3.59
    y[6,3]     OBJ        0
    y[6,3]     primal_lower -0.53
    y[6,4]     OBJ        0
    y[6,4]     primal_lower -3.16
    y[6,5]     OBJ        0
    y[6,5]     primal_lower -3.61
    y[6,7]     OBJ        0
    y[6,7]     primal_lower -0.74
    y[6,8]     OBJ        0
    y[6,8]     primal_lower -1.16
    y[7,0]     OBJ        0
    y[7,0]     primal_lower -3.92
    y[7,3]     OBJ        0
    y[7,3]     primal_lower -2.77
    y[7,4]     OBJ        0
    y[7,4]     primal_lower -1.35
    y[7,5]     OBJ        0
    y[7,5]     primal_lower -1.77
    y[7,6]     OBJ        0
    y[7,6]     primal_lower -0.7
    y[7,8]     OBJ        0
    y[7,8]     primal_lower -0.84
    y[8,0]     OBJ        0
    y[8,0]     primal_lower -0.84
    y[8,2]     OBJ        0
    y[8,2]     primal_lower -3.63
    y[8,3]     OBJ        0
    y[8,3]     primal_lower -2.93
    y[8,4]     OBJ        0
    y[8,4]     primal_lower -0.44
    y[8,5]     OBJ        0
    y[8,5]     primal_lower -1.39
    y[8,6]     OBJ        0
    y[8,6]     primal_lower -2.47
    y[8,7]     OBJ        0
    y[8,7]     primal_lower -0.05
    u[0,1]     OBJ        0
    u[0,1]     primal_lower 6
    u[0,2]     OBJ        0
    u[0,2]     primal_lower 63
    u[0,3]     OBJ        0
    u[0,3]     primal_lower 43
    u[0,4]     OBJ        0
    u[0,4]     primal_lower 43
    u[0,5]     OBJ        0
    u[0,5]     primal_lower 45
    u[0,6]     OBJ        0
    u[0,6]     primal_lower 77
    u[0,7]     OBJ        0
    u[0,7]     primal_lower 26
    u[0,8]     OBJ        0
    u[0,8]     primal_lower 13
    u[1,0]     OBJ        0
    u[1,0]     primal_lower 27
    u[1,2]     OBJ        0
    u[1,2]     primal_lower 46
    u[1,3]     OBJ        0
    u[1,3]     primal_lower 96
    u[1,4]     OBJ        0
    u[1,4]     primal_lower 10
    u[1,6]     OBJ        0
    u[1,6]     primal_lower 16
    u[2,0]     OBJ        0
    u[2,0]     primal_lower 62
    u[2,1]     OBJ        0
    u[2,1]     primal_lower 98
    u[2,3]     OBJ        0
    u[2,3]     primal_lower 76
    u[2,4]     OBJ        0
    u[2,4]     primal_lower 56
    u[2,8]     OBJ        0
    u[2,8]     primal_lower 39
    u[3,0]     OBJ        0
    u[3,0]     primal_lower 61
    u[3,1]     OBJ        0
    u[3,1]     primal_lower 83
    u[3,2]     OBJ        0
    u[3,2]     primal_lower 58
    u[3,4]     OBJ        0
    u[3,4]     primal_lower 4
    u[3,6]     OBJ        0
    u[3,6]     primal_lower 54
    u[3,7]     OBJ        0
    u[3,7]     primal_lower 84
    u[3,8]     OBJ        0
    u[3,8]     primal_lower 27
    u[4,0]     OBJ        0
    u[4,0]     primal_lower 8
    u[4,1]     OBJ        0
    u[4,1]     primal_lower 43
    u[4,2]     OBJ        0
    u[4,2]     primal_lower 51
    u[4,3]     OBJ        0
    u[4,3]     primal_lower 39
    u[4,5]     OBJ        0
    u[4,5]     primal_lower 88
    u[4,6]     OBJ        0
    u[4,6]     primal_lower 67
    u[4,7]     OBJ        0
    u[4,7]     primal_lower 73
    u[4,8]     OBJ        0
    u[4,8]     primal_lower 52
    u[5,0]     OBJ        0
    u[5,0]     primal_lower 31
    u[5,4]     OBJ        0
    u[5,4]     primal_lower 63
    u[5,6]     OBJ        0
    u[5,6]     primal_lower 47
    u[5,7]     OBJ        0
    u[5,7]     primal_lower 52
    u[5,8]     OBJ        0
    u[5,8]     primal_lower 19
    u[6,0]     OBJ        0
    u[6,0]     primal_lower 93
    u[6,1]     OBJ        0
    u[6,1]     primal_lower 2
    u[6,3]     OBJ        0
    u[6,3]     primal_lower 44
    u[6,4]     OBJ        0
    u[6,4]     primal_lower 78
    u[6,5]     OBJ        0
    u[6,5]     primal_lower 50
    u[6,7]     OBJ        0
    u[6,7]     primal_lower 56
    u[6,8]     OBJ        0
    u[6,8]     primal_lower 63
    u[7,0]     OBJ        0
    u[7,0]     primal_lower 21
    u[7,3]     OBJ        0
    u[7,3]     primal_lower 49
    u[7,4]     OBJ        0
    u[7,4]     primal_lower 9
    u[7,5]     OBJ        0
    u[7,5]     primal_lower 31
    u[7,6]     OBJ        0
    u[7,6]     primal_lower 14
    u[7,8]     OBJ        0
    u[7,8]     primal_lower 43
    u[8,0]     OBJ        0
    u[8,0]     primal_lower 27
    u[8,2]     OBJ        0
    u[8,2]     primal_lower 41
    u[8,3]     OBJ        0
    u[8,3]     primal_lower 81
    u[8,4]     OBJ        0
    u[8,4]     primal_lower 62
    u[8,5]     OBJ        0
    u[8,5]     primal_lower 4
    u[8,6]     OBJ        0
    u[8,6]     primal_lower 48
    u[8,7]     OBJ        0
    u[8,7]     primal_lower 63
    MARKER    'MARKER'                 'INTEND'
RHS
    RHS       primal_lower 247
BOUNDS
 LI BND       y[0,1]     0
 UI BND       y[0,1]     1
 LI BND       y[0,2]     0
 UI BND       y[0,2]     1
 LI BND       y[0,3]     0
 UI BND       y[0,3]     1
 LI BND       y[0,4]     0
 UI BND       y[0,4]     1
 LI BND       y[0,5]     0
 UI BND       y[0,5]     1
 LI BND       y[0,6]     0
 UI BND       y[0,6]     1
 LI BND       y[0,7]     0
 UI BND       y[0,7]     1
 LI BND       y[0,8]     0
 UI BND       y[0,8]     1
 LI BND       y[1,0]     0
 UI BND       y[1,0]     1
 LI BND       y[1,2]     0
 UI BND       y[1,2]     1
 LI BND       y[1,3]     0
 UI BND       y[1,3]     1
 LI BND       y[1,4]     0
 UI BND       y[1,4]     1
 LI BND       y[1,6]     0
 UI BND       y[1,6]     1
 LI BND       y[2,0]     0
 UI BND       y[2,0]     1
 LI BND       y[2,1]     0
 UI BND       y[2,1]     1
 LI BND       y[2,3]     0
 UI BND       y[2,3]     1
 LI BND       y[2,4]     0
 UI BND       y[2,4]     1
 LI BND       y[2,8]     0
 UI BND       y[2,8]     1
 LI BND       y[3,0]     0
 UI BND       y[3,0]     1
 LI BND       y[3,1]     0
 UI BND       y[3,1]     1
 LI BND       y[3,2]     0
 UI BND       y[3,2]     1
 LI BND       y[3,4]     0
 UI BND       y[3,4]     1
 LI BND       y[3,6]     0
 UI BND       y[3,6]     1
 LI BND       y[3,7]     0
 UI BND       y[3,7]     1
 LI BND       y[3,8]     0
 UI BND       y[3,8]     1
 LI BND       y[4,0]     0
 UI BND       y[4,0]     1
 LI BND       y[4,1]     0
 UI BND       y[4,1]     1
 LI BND       y[4,2]     0
 UI BND       y[4,2]     1
 LI BND       y[4,3]     0
 UI BND       y[4,3]     1
 LI BND       y[4,5]     0
 UI BND       y[4,5]     1
 LI BND       y[4,6]     0
 UI BND       y[4,6]     1
 LI BND       y[4,7]     0
 UI BND       y[4,7]     1
 LI BND       y[4,8]     0
 UI BND       y[4,8]     1
 LI BND       y[5,0]     0
 UI BND       y[5,0]     1
 LI BND       y[5,4]     0
 UI BND       y[5,4]     1
 LI BND       y[5,6]     0
 UI BND       y[5,6]     1
 LI BND       y[5,7]     0
 UI BND       y[5,7]     1
 LI BND       y[5,8]     0
 UI BND       y[5,8]     1
 LI BND       y[6,0]     0
 UI BND       y[6,0]     1
 LI BND       y[6,1]     0
 UI BND       y[6,1]     1
 LI BND       y[6,3]     0
 UI BND       y[6,3]     1
 LI BND       y[6,4]     0
 UI BND       y[6,4]     1
 LI BND       y[6,5]     0
 UI BND       y[6,5]     1
 LI BND       y[6,7]     0
 UI BND       y[6,7]     1
 LI BND       y[6,8]     0
 UI BND       y[6,8]     1
 LI BND       y[7,0]     0
 UI BND       y[7,0]     1
 LI BND       y[7,3]     0
 UI BND       y[7,3]     1
 LI BND       y[7,4]     0
 UI BND       y[7,4]     1
 LI BND       y[7,5]     0
 UI BND       y[7,5]     1
 LI BND       y[7,6]     0
 UI BND       y[7,6]     1
 LI BND       y[7,8]     0
 UI BND       y[7,8]     1
 LI BND       y[8,0]     0
 UI BND       y[8,0]     1
 LI BND       y[8,2]     0
 UI BND       y[8,2]     1
 LI BND       y[8,3]     0
 UI BND       y[8,3]     1
 LI BND       y[8,4]     0
 UI BND       y[8,4]     1
 LI BND       y[8,5]     0
 UI BND       y[8,5]     1
 LI BND       y[8,6]     0
 UI BND       y[8,6]     1
 LI BND       y[8,7]     0
 UI BND       y[8,7]     1
 LI BND       u[0,1]     0
 UI BND       u[0,1]     1
 LI BND       u[0,2]     0
 UI BND       u[0,2]     1
 LI BND       u[0,3]     0
 UI BND       u[0,3]     1
 LI BND       u[0,4]     0
 UI BND       u[0,4]     1
 LI BND       u[0,5]     0
 UI BND       u[0,5]     1
 LI BND       u[0,6]     0
 UI BND       u[0,6]     1
 LI BND       u[0,7]     0
 UI BND       u[0,7]     1
 LI BND       u[0,8]     0
 UI BND       u[0,8]     1
 LI BND       u[1,0]     0
 UI BND       u[1,0]     1
 LI BND       u[1,2]     0
 UI BND       u[1,2]     1
 LI BND       u[1,3]     0
 UI BND       u[1,3]     1
 LI BND       u[1,4]     0
 UI BND       u[1,4]     1
 LI BND       u[1,6]     0
 UI BND       u[1,6]     1
 LI BND       u[2,0]     0
 UI BND       u[2,0]     1
 LI BND       u[2,1]     0
 UI BND       u[2,1]     1
 LI BND       u[2,3]     0
 UI BND       u[2,3]     1
 LI BND       u[2,4]     0
 UI BND       u[2,4]     1
 LI BND       u[2,8]     0
 UI BND       u[2,8]     1
 LI BND       u[3,0]     0
 UI BND       u[3,0]     1
 LI BND       u[3,1]     0
 UI BND       u[3,1]     1
 LI BND       u[3,2]     0
 UI BND       u[3,2]     1
 LI BND       u[3,4]     0
 UI BND       u[3,4]     1
 LI BND       u[3,6]     0
 UI BND       u[3,6]     1
 LI BND       u[3,7]     0
 UI BND       u[3,7]     1
 LI BND       u[3,8]     0
 UI BND       u[3,8]     1
 LI BND       u[4,0]     0
 UI BND       u[4,0]     1
 LI BND       u[4,1]     0
 UI BND       u[4,1]     1
 LI BND       u[4,2]     0
 UI BND       u[4,2]     1
 LI BND       u[4,3]     0
 UI BND       u[4,3]     1
 LI BND       u[4,5]     0
 UI BND       u[4,5]     1
 LI BND       u[4,6]     0
 UI BND       u[4,6]     1
 LI BND       u[4,7]     0
 UI BND       u[4,7]     1
 LI BND       u[4,8]     0
 UI BND       u[4,8]     1
 LI BND       u[5,0]     0
 UI BND       u[5,0]     1
 LI BND       u[5,4]     0
 UI BND       u[5,4]     1
 LI BND       u[5,6]     0
 UI BND       u[5,6]     1
 LI BND       u[5,7]     0
 UI BND       u[5,7]     1
 LI BND       u[5,8]     0
 UI BND       u[5,8]     1
 LI BND       u[6,0]     0
 UI BND       u[6,0]     1
 LI BND       u[6,1]     0
 UI BND       u[6,1]     1
 LI BND       u[6,3]     0
 UI BND       u[6,3]     1
 LI BND       u[6,4]     0
 UI BND       u[6,4]     1
 LI BND       u[6,5]     0
 UI BND       u[6,5]     1
 LI BND       u[6,7]     0
 UI BND       u[6,7]     1
 LI BND       u[6,8]     0
 UI BND       u[6,8]     1
 LI BND       u[7,0]     0
 UI BND       u[7,0]     1
 LI BND       u[7,3]     0
 UI BND       u[7,3]     1
 LI BND       u[7,4]     0
 UI BND       u[7,4]     1
 LI BND       u[7,5]     0
 UI BND       u[7,5]     1
 LI BND       u[7,6]     0
 UI BND       u[7,6]     1
 LI BND       u[7,8]     0
 UI BND       u[7,8]     1
 LI BND       u[8,0]     0
 UI BND       u[8,0]     1
 LI BND       u[8,2]     0
 UI BND       u[8,2]     1
 LI BND       u[8,3]     0
 UI BND       u[8,3]     1
 LI BND       u[8,4]     0
 UI BND       u[8,4]     1
 LI BND       u[8,5]     0
 UI BND       u[8,5]     1
 LI BND       u[8,6]     0
 UI BND       u[8,6]     1
 LI BND       u[8,7]     0
 UI BND       u[8,7]     1
ENDATA
